(set-logic HORN)
(set-info :source |
    Benchmark: C_VC
    Output by Princess (http://www.philipp.ruemmer.org/princess.shtml)
|)
(set-info :status sat)
;===============================================================================
; Encoding of Heap sorts and operations
;-------------------------------------------------------------------------------
(define-sort Addr() Int)
(declare-datatypes ((HeapObject 0) (TData 0) (TNode 0))
                   (((O_Int (getInt Int)) (O_UInt (getUInt Int)) (O_Addr (getAddr Addr)) (O_TData (getTData TData)) (O_TNode (getTNode TNode)) (defObj))
                   ((TData (x Int)))
                   ((TNode (next Addr) (prev Addr) (pData Addr) (data TData)))))
(declare-datatypes ((AllocResHeap 0) (Heap 0))
                   (((AllocResHeap   (newHeap Heap) (newAddr Addr)))
                    ((HeapCtor (HeapSize Int)
                               (HeapContents (Array Addr HeapObject))))))
(define-fun nullAddr  () Addr 0)
(define-fun valid     ((h Heap) (p Addr)) Bool
  (and (>= (HeapSize h) p) (> p 0)))
(define-fun emptyHeap () Heap (
  HeapCtor 0 (( as const (Array Addr HeapObject)) defObj)))
(define-fun read ((h Heap) (p Addr)) HeapObject
  (ite (valid h p)
       (select (HeapContents h) p)
       defObj))
(define-fun write ((h Heap) (p Addr) (o HeapObject)) Heap
  (ite (valid h p)
       (HeapCtor (HeapSize h) (store (HeapContents h) p o))
       h))
(define-fun alloc   ((h Heap) (o HeapObject)) AllocResHeap
  (AllocResHeap (HeapCtor (+ 1 (HeapSize h))
                    (store (HeapContents h) (+ 1 (HeapSize h)) o))
          (+ 1 (HeapSize h))))

;===============================================================================
(declare-fun inv_main11 (Heap Addr Addr Addr) Bool)
(declare-fun inv_main16 (Heap Addr Addr) Bool)
(declare-fun inv_main18 (Heap Addr Addr) Bool)
(declare-fun inv_main2 (Heap) Bool)
(declare-fun inv_main22 (Heap Addr Addr) Bool)
(declare-fun inv_main24 (Heap Addr Addr Addr) Bool)
(declare-fun inv_main26 (Heap Addr Addr Addr) Bool)
(declare-fun inv_main29 (Heap Addr Addr) Bool)
(declare-fun inv_main30 (Heap Addr Addr) Bool)
(declare-fun inv_main33 (Heap Addr Addr) Bool)
(declare-fun inv_main36 (Heap Addr Addr Addr) Bool)
(declare-fun inv_main5 (Heap Addr Addr) Bool)
(declare-fun inv_main7 (Heap Addr Addr) Bool)
(declare-fun inv_main8 (Heap Addr Addr) Bool)
(assert (inv_main2 emptyHeap))
(assert (forall ((var0 Addr) (var1 Heap) (var2 Addr) (var3 Addr) (var4 Addr) (var5 Addr) (var6 Addr) (var7 TNode) (var8 Heap) (var9 Heap) (var10 Heap)) (or (not (and (inv_main2 var10) (and (and (and (and (and (= var9 (newHeap (alloc var8 (O_TNode var7)))) (= var6 var5)) (= var4 var3)) (= var2 (newAddr (alloc var8 (O_TNode var7))))) (and (and (= var8 var1) (= var5 var0)) (= var3 nullAddr))) (and (= var1 var10) (= var0 nullAddr))))) (inv_main5 var9 var6 var2))))
(assert (forall ((var0 Addr) (var1 Addr) (var2 Heap)) (or (not (and (inv_main7 var2 var1 var0) (is-O_TNode (read var2 var0)))) (inv_main8 (write var2 var0 (O_TNode (TNode (next (getTNode (read var2 var0))) nullAddr (pData (getTNode (read var2 var0))) (data (getTNode (read var2 var0)))))) var1 var0))))
(assert (forall ((var0 Addr) (var1 Addr) (var2 Heap)) (or (not (and (inv_main16 var2 var1 var0) (is-O_TNode (read var2 var0)))) (inv_main18 (write var2 var0 (O_TNode (TNode var1 (prev (getTNode (read var2 var0))) (pData (getTNode (read var2 var0))) (data (getTNode (read var2 var0)))))) var1 var0))))
(assert (forall ((var0 TNode) (var1 Addr) (var2 Addr) (var3 Heap) (var4 Int) (var5 Addr) (var6 Addr) (var7 Heap)) (or (not (and (inv_main18 var7 var6 var5) (and (not (= var4 0)) (and (is-O_TNode (read var7 var6)) (and (and (= var3 (write var7 var6 (O_TNode (TNode (next (getTNode (read var7 var6))) var5 (pData (getTNode (read var7 var6))) (data (getTNode (read var7 var6))))))) (= var2 var6)) (= var1 var5)))))) (inv_main24 (newHeap (alloc var3 (O_TNode var0))) var2 var1 (newAddr (alloc var3 (O_TNode var0)))))))
(assert (forall ((var0 Addr) (var1 Addr) (var2 Heap) (var3 Addr) (var4 Addr) (var5 Heap)) (or (not (and (inv_main8 var5 var4 var3) (and (is-O_TNode (read var5 var3)) (and (and (= var2 (newHeap (alloc var5 (O_TData (data (getTNode (read var5 var3))))))) (= var1 var4)) (= var0 var3))))) (inv_main11 var2 var1 var0 (newAddr (alloc var2 (O_TData (data (getTNode (read var2 var0))))))))))
(assert (forall ((var0 Addr) (var1 Addr) (var2 Addr) (var3 Heap) (var4 Addr) (var5 Addr) (var6 Heap)) (or (not (and (inv_main29 var6 var5 var4) (and (is-O_TNode (read var6 var5)) (and (and (and (= var3 var6) (= var2 var5)) (= var1 var4)) (= var0 (next (getTNode (read var6 var5)))))))) (inv_main30 var3 var0 var1))))
(assert (forall ((var0 Addr) (var1 Addr) (var2 Heap) (var3 Addr) (var4 Addr) (var5 Heap)) (or (not (and (inv_main30 var5 var4 var3) (and (is-O_TNode (read var5 var3)) (and (and (= var2 (newHeap (alloc var5 (O_TData (data (getTNode (read var5 var3))))))) (= var1 var4)) (= var0 var3))))) (inv_main36 var2 var1 var0 (newAddr (alloc var2 (O_TData (data (getTNode (read var2 var0))))))))))
(assert (forall ((var0 Addr) (var1 Addr) (var2 Heap)) (or (not (and (inv_main5 var2 var1 var0) (is-O_TNode (read var2 var0)))) (inv_main7 (write var2 var0 (O_TNode (TNode nullAddr (prev (getTNode (read var2 var0))) (pData (getTNode (read var2 var0))) (data (getTNode (read var2 var0)))))) var1 var0))))
(assert (forall ((var0 Addr) (var1 Heap) (var2 Int) (var3 Addr) (var4 Addr) (var5 Addr) (var6 Addr) (var7 Heap)) (or (not (and (inv_main11 var7 var6 var5 var4) (and (not (= nullAddr var3)) (and (= var2 0) (and (is-O_TNode (read var7 var5)) (and (and (= var1 (write var7 var5 (O_TNode (TNode (next (getTNode (read var7 var5))) (prev (getTNode (read var7 var5))) var4 (data (getTNode (read var7 var5))))))) (= var0 var6)) (= var3 var5))))))) (inv_main29 var1 var3 var3))))
(assert (forall ((var0 Addr) (var1 Heap) (var2 Int) (var3 Addr) (var4 Addr) (var5 Addr) (var6 Addr) (var7 Heap)) (or (not (and (inv_main24 var7 var6 var5 var4) (and (not (= nullAddr var3)) (and (and (= var2 0) (is-O_TNode (read var7 var5))) (and (and (= var1 (write var7 var5 (O_TNode (TNode (next (getTNode (read var7 var5))) (prev (getTNode (read var7 var5))) var4 (data (getTNode (read var7 var5))))))) (= var0 var6)) (= var3 var5)))))) (inv_main29 var1 var3 var3))))
(assert (forall ((var0 Addr) (var1 Heap) (var2 Int) (var3 Addr) (var4 Addr) (var5 Addr) (var6 Addr) (var7 Heap)) (or (not (and (inv_main26 var7 var6 var5 var4) (and (not (= nullAddr var3)) (and (and (= var2 0) (is-O_TNode (read var7 var5))) (and (and (= var1 (write var7 var5 (O_TNode (TNode (next (getTNode (read var7 var5))) (prev (getTNode (read var7 var5))) var4 (data (getTNode (read var7 var5))))))) (= var0 var6)) (= var3 var5)))))) (inv_main29 var1 var3 var3))))
(assert (forall ((var0 Addr) (var1 Heap) (var2 Addr) (var3 Addr) (var4 Heap) (var5 Addr) (var6 Addr) (var7 Addr) (var8 Heap)) (or (not (and (inv_main33 var8 var7 var6) (and (and (not (= nullAddr var5)) (and (is-O_TNode (read var8 var6)) (and (and (= var4 (write var8 (pData (getTNode (read var8 var6))) defObj)) (= var3 var7)) (= var2 var6)))) (and (and (= var1 (write var4 var2 defObj)) (= var5 var3)) (= var0 var2))))) (inv_main29 var1 var5 var5))))
(assert (forall ((var0 Addr) (var1 Heap) (var2 Addr) (var3 Addr) (var4 Addr) (var5 Addr) (var6 Heap)) (or (not (and (inv_main36 var6 var5 var4 var3) (and (and (not (= nullAddr var2)) (and (is-O_TNode (read var6 var4)) (= var3 (pData (getTNode (read var6 var4)))))) (and (and (= var1 (write var6 var4 defObj)) (= var2 var5)) (= var0 var4))))) (inv_main29 var1 var2 var2))))
(assert (forall ((var0 Addr) (var1 Addr) (var2 Heap) (var3 Addr) (var4 Addr) (var5 Heap)) (or (not (and (inv_main22 var5 var4 var3) (and (is-O_TNode (read var5 var3)) (and (and (= var2 (newHeap (alloc var5 (O_TData (data (getTNode (read var5 var3))))))) (= var1 var4)) (= var0 var3))))) (inv_main26 var2 var1 var0 (newAddr (alloc var2 (O_TData (data (getTNode (read var2 var0))))))))))
(assert (forall ((var0 Addr) (var1 Addr) (var2 Addr) (var3 Heap)) (or (not (and (inv_main36 var3 var2 var1 var0) (and (is-O_TNode (read var3 var1)) (not (= var0 (pData (getTNode (read var3 var1)))))))) (inv_main33 var3 var2 var1))))
(assert (forall ((var0 Addr) (var1 Addr) (var2 Heap) (var3 Int) (var4 Addr) (var5 Addr) (var6 Heap)) (or (not (and (inv_main18 var6 var5 var4) (and (= var3 0) (and (is-O_TNode (read var6 var5)) (and (and (= var2 (write var6 var5 (O_TNode (TNode (next (getTNode (read var6 var5))) var4 (pData (getTNode (read var6 var5))) (data (getTNode (read var6 var5))))))) (= var1 var5)) (= var0 var4)))))) (inv_main22 var2 var1 var0))))
(assert (forall ((var0 Addr) (var1 Int) (var2 Addr) (var3 Addr) (var4 Addr) (var5 Addr) (var6 TNode) (var7 Heap) (var8 Heap) (var9 Addr) (var10 Addr) (var11 Addr) (var12 Heap)) (or (not (and (inv_main11 var12 var11 var10 var9) (and (and (and (and (and (= var8 (newHeap (alloc var7 (O_TNode var6)))) (= var5 var4)) (= var3 var4)) (= var2 (newAddr (alloc var7 (O_TNode var6))))) (not (= var1 0))) (and (is-O_TNode (read var12 var10)) (and (and (= var7 (write var12 var10 (O_TNode (TNode (next (getTNode (read var12 var10))) (prev (getTNode (read var12 var10))) var9 (data (getTNode (read var12 var10))))))) (= var0 var11)) (= var4 var10)))))) (inv_main16 var8 var5 var2))))
(assert (forall ((var0 Addr) (var1 Int) (var2 Addr) (var3 Addr) (var4 Addr) (var5 Addr) (var6 TNode) (var7 Heap) (var8 Heap) (var9 Addr) (var10 Addr) (var11 Addr) (var12 Heap)) (or (not (and (inv_main24 var12 var11 var10 var9) (and (and (and (and (and (and (= var8 (newHeap (alloc var7 (O_TNode var6)))) (= var5 var4)) (= var3 var4)) (= var2 (newAddr (alloc var7 (O_TNode var6))))) (not (= var1 0))) (is-O_TNode (read var12 var10))) (and (and (= var7 (write var12 var10 (O_TNode (TNode (next (getTNode (read var12 var10))) (prev (getTNode (read var12 var10))) var9 (data (getTNode (read var12 var10))))))) (= var0 var11)) (= var4 var10))))) (inv_main16 var8 var5 var2))))
(assert (forall ((var0 Addr) (var1 Int) (var2 Addr) (var3 Addr) (var4 Addr) (var5 Addr) (var6 TNode) (var7 Heap) (var8 Heap) (var9 Addr) (var10 Addr) (var11 Addr) (var12 Heap)) (or (not (and (inv_main26 var12 var11 var10 var9) (and (and (and (and (and (and (= var8 (newHeap (alloc var7 (O_TNode var6)))) (= var5 var4)) (= var3 var4)) (= var2 (newAddr (alloc var7 (O_TNode var6))))) (not (= var1 0))) (is-O_TNode (read var12 var10))) (and (and (= var7 (write var12 var10 (O_TNode (TNode (next (getTNode (read var12 var10))) (prev (getTNode (read var12 var10))) var9 (data (getTNode (read var12 var10))))))) (= var0 var11)) (= var4 var10))))) (inv_main16 var8 var5 var2))))
(assert (forall ((var0 Addr) (var1 Addr) (var2 Heap)) (not (and (inv_main5 var2 var1 var0) (not (is-O_TNode (read var2 var0)))))))
(assert (forall ((var0 Addr) (var1 Addr) (var2 Heap)) (not (and (inv_main7 var2 var1 var0) (not (is-O_TNode (read var2 var0)))))))
(assert (forall ((var0 Addr) (var1 Addr) (var2 Heap)) (not (and (inv_main8 var2 var1 var0) (not (is-O_TNode (read var2 var0)))))))
(assert (forall ((var0 Addr) (var1 Addr) (var2 Addr) (var3 Heap)) (not (and (inv_main11 var3 var2 var1 var0) (not (is-O_TNode (read var3 var1)))))))
(assert (forall ((var0 Addr) (var1 Addr) (var2 Heap)) (not (and (inv_main16 var2 var1 var0) (not (is-O_TNode (read var2 var0)))))))
(assert (forall ((var0 Addr) (var1 Addr) (var2 Heap)) (not (and (inv_main18 var2 var1 var0) (not (is-O_TNode (read var2 var1)))))))
(assert (forall ((var0 Addr) (var1 Addr) (var2 Addr) (var3 Heap)) (not (and (inv_main24 var3 var2 var1 var0) (not (is-O_TNode (read var3 var1)))))))
(assert (forall ((var0 Addr) (var1 Addr) (var2 Heap)) (not (and (inv_main22 var2 var1 var0) (not (is-O_TNode (read var2 var0)))))))
(assert (forall ((var0 Addr) (var1 Addr) (var2 Addr) (var3 Heap)) (not (and (inv_main26 var3 var2 var1 var0) (not (is-O_TNode (read var3 var1)))))))
(assert (forall ((var0 Addr) (var1 Addr) (var2 Heap)) (not (and (inv_main29 var2 var1 var0) (not (is-O_TNode (read var2 var1)))))))
(assert (forall ((var0 Addr) (var1 Addr) (var2 Heap)) (not (and (inv_main30 var2 var1 var0) (not (is-O_TNode (read var2 var0)))))))
(assert (forall ((var0 Addr) (var1 Addr) (var2 Addr) (var3 Heap)) (not (and (inv_main36 var3 var2 var1 var0) (not (is-O_TNode (read var3 var1)))))))
(assert (forall ((var0 Addr) (var1 Addr) (var2 Heap)) (not (and (inv_main33 var2 var1 var0) (not (is-O_TNode (read var2 var0)))))))
(check-sat)
